<number of tasks>
7

<cycle time>
6

<task times>
1 1
2 5
3 4
4 3
5 5
6 6
7 5

<precedence relations>
1,2
1,4
2,3
2,5
4,7
5,6

<setup times forward>
1,2:1
2,4:1
2,7:1
3,4:1
3,6:1
3,7:1
4,2:1
4,3:1
4,5:1
5,4:1
5,6:1
5,7:1
6,3:1
7,2:1
7,3:1
7,5:1

<setup times backward>
2,1:1
2,4:1
2,7:1
3,1:1
3,4:1
3,6:1
3,7:1
5,1:1
5,4:1
5,7:1

<end>

<optimal SALBP-1 value>
6


<rand seed>
467321153

<Lower Bounds>
Lm1=5
Lms1=5
Lm2=6
Lm3=6
Lm4=6
Best=6

<Optimal Stations (Iterations: 10)>
6
